nNurses = 194;
nHours = 38;
minHours = 5;
maxHours = 16;
maxConsec = 7;
maxPresence = 27;
demand = [12, 12, 12, 13, 8, 10, 13, 18, 18, 13, 15, 17, 20, 15, 20, 17, 14, 10, 13, 12, 17, 21, 26, 29, 33, 29, 34, 29, 31, 28, 27, 22, 22, 20, 19, 16, 20, 19];
